
# For a single processor calculation
variable T equal 300 # Simulation temperature
variable salt equal 100.0 # Salt concentration [mM]

# Random number seed for Langevin integrator
variable random equal 12345

# Specify the different interaction styles
bond_style      class2
angle_style     hybrid harmonic stacking/3spn2
dihedral_style  3spn2
# pair_stype 3spn2 [dna type] [temperature] [salt concentration (mM)] [short range cutoff] [Coulombic cutoff]
pair_style      hybrid/overlay 3spn2 adna ${T} ${salt} 18.0 50.0
pair_style      hybrid/overlay 3spn2 adna 300 ${salt} 18.0 50.0
pair_style      hybrid/overlay 3spn2 adna 300 100 18.0 50.0

# Periodic boundary conditions
boundary p p p

# Turn on Newton's 2nd law
newton on  #yes

# Read in the configuration
read_data adna_conf.in
  2 = max bonds/atom
  3 = max angles/atom
  1 = max dihedrals/atom
  orthogonal box = (-94.208 -94.208 -94.208) to (94.208 94.208 94.208)
  1 by 1 by 1 MPI processor grid
  190 atoms
  188 bonds
  308 angles
  120 dihedrals
  3 = max # of 1-2 neighbors
  4 = max # of 1-3 neighbors
  6 = max # of 1-4 neighbors
  9 = max # of special neighbors

# Specify the pair coefficients
pair_coeff  1   1   3spn2   0.239006    4.500000
pair_coeff  2   2   3spn2   0.239006    6.200000
pair_coeff  3   3   3spn2   0.239006    4.460000
pair_coeff  4   4   3spn2   0.239006    5.500000
pair_coeff  5   5   3spn2   0.239006    4.200000
pair_coeff  6   6   3spn2   0.239006    5.700000
pair_coeff  7   7   3spn2   0.239006    4.460000
pair_coeff  8   8   3spn2   0.239006    5.500000
pair_coeff  9   9   3spn2   0.239006    4.200000
pair_coeff  10  10  3spn2   0.239006    5.700000
pair_coeff  11  11  3spn2   0.239006    4.460000
pair_coeff  12  12  3spn2   0.239006    5.500000
pair_coeff  13  13  3spn2   0.239006    4.200000
pair_coeff  14  14  3spn2   0.239006    5.700000
pair_modify mix arithmetic
pair_coeff 1*17 15*17 none # Zeroing out other interactions

# Specify parameters for the neighbor list
neighbor	4.0 multi
neigh_modify    check yes

# A timestep of 0.02 ps
timestep 20.0

# Initialize velocities from a Gaussian distribution
velocity all create ${T} ${random} rot yes mom yes dist gaussian
velocity all create 300 ${random} rot yes mom yes dist gaussian
velocity all create 300 12345 rot yes mom yes dist gaussian

# Calculating the different components of the non-bonded energy
compute edna all pair 3spn2
variable ebp equal c_edna[1] # Base pairing energy
variable ecstk equal c_edna[2] # Cross stacking energy
variable eexcl equal c_edna[3] # Excluded volume energy
variable dna_ecoul equal c_edna[4] # DNA coulombic energy
variable nbp equal c_edna[5] # Number of base pairs

# Specifying the frequency of thermodynamic output
thermo 1
thermo_style custom step v_nbp ebond eangle edihed v_ebp v_ecstk v_eexcl v_dna_ecoul temp

# Specifying a Langevin integrator to perform a simulation in the NVT ensemble
fix 1 all langevin ${T} ${T} 500 ${random} gjf yes
fix 1 all langevin 300 ${T} 500 ${random} gjf yes
fix 1 all langevin 300 300 500 ${random} gjf yes
fix 1 all langevin 300 300 500 12345 gjf yes
fix 2 all nve

# Write configuration to file
#dump 1 all xyz 2000 traj.xyz

# Run X number of steps
#run 50000
rerun traj.xyz dump x y z box no format xyz
Memory usage per processor = 5.1954 Mbytes
Step nbp E_bond E_angle E_dihed ebp ecstk eexcl dna_ecou Temp 
       0           32 3.3876576e-06 1.7240929e-05   -172.08408    151.26409   -38.325871            0    16.188186          300 
       1           28    24.743813    61.934707    -159.1306   -131.48661   -27.761693   0.45736792    15.624722          300 
       2           25    18.247548    61.854874   -159.79056   -127.91609   -26.020416   0.36622901    15.501251          300 
       3           23    29.761379    62.783474   -157.94893   -124.25458   -24.986059   0.27388542    15.415176          300 
       4           21    24.085676    56.104161    -161.8655   -122.99468   -25.127307   0.42420977    14.765882          300 
       5           26    27.473861    60.573936   -158.88794   -125.75175   -26.150779   0.39974714    13.833165          300 
       6           22    31.248028    58.884029   -157.37454   -116.59627   -21.848548   0.30708994    13.399115          300 
       7           22    27.530981     59.72209   -159.93754   -124.36303   -25.952883   0.37696827    13.217534          300 
       8           25    27.358173    55.409704   -159.15557    -125.7807   -26.285161   0.43876802    13.176532          300 
       9           21    30.533739     69.72104   -155.10703    -114.8531    -22.93331   0.57081922    14.351121          300 
      10           25    26.781228    65.103587    -159.0492   -124.69083   -26.719897   0.30632266    14.427183          300 
      11           26     23.22906    46.972042   -158.90058    -119.5139    -26.25681  0.050748869    16.771518          300 
      12           24    31.538998     63.73022   -157.37919   -126.20542    -27.71837  0.080696305    15.288936          300 
      13           24    25.436532    59.215994    -157.8477   -118.21417   -25.418758   0.32105879    14.440316          300 
      14           22    23.313172    66.717884    -156.6962   -115.71842   -24.453714    1.0243102    15.235708          300 
      15           25    29.488205     59.73992    -157.1076   -125.02807   -27.915812   0.41578574    15.064676          300 
      16           23    19.772571    57.781492   -161.04226   -123.19084    -24.62411   0.52706011    13.665963          300 
      17           26    25.618884    56.252326   -155.93994   -126.86081   -23.236582  0.036350558    14.337658          300 
      18           18    29.990727    60.052113    -159.1256   -113.46529   -24.331494   0.19418768    14.053839          300 
      19           21    33.437957    60.366785   -159.80213   -125.37606   -26.425576   0.29368127    14.140128          300 
      20           21    32.940202    59.316797   -157.26873   -120.74826   -23.912824   0.59504691    14.143916          300 
      21           25    28.934721    55.730645   -162.05305   -123.53494   -25.655457   0.31186778    15.320926          300 
      22           27    25.422628    62.985392   -155.80187   -125.07978   -23.613831   0.92963195    14.371842          300 
      23           24    25.860634    53.836875   -158.21417   -119.08102   -24.261076   0.12359613    14.687939          300 
      24           27    21.001669    52.625219   -159.19166   -128.29586   -25.582627   0.19763081    13.587251          300 
      25           23    28.134294    64.745654   -160.74877   -123.48323   -27.846666   0.18444563    14.236942          300 
Loop time of 0.0232289 on 1 procs for 26 steps with 190 atoms

Pair  time (%) = 0 (0)
Bond  time (%) = 0 (0)
Neigh time (%) = 0 (0)
Comm  time (%) = 0 (0)
Outpt time (%) = 0 (0)
Other time (%) = 0.0232289 (100)

Nlocal:    190 ave 190 max 190 min
Histogram: 1 0 0 0 0 0 0 0 0 0
Nghost:    15 ave 15 max 15 min
Histogram: 1 0 0 0 0 0 0 0 0 0
Neighs:    14376 ave 14376 max 14376 min
Histogram: 1 0 0 0 0 0 0 0 0 0

Total # of neighbors = 14376
Ave neighs/atom = 75.6632
Ave special neighs/atom = 7.13684
Neighbor list builds = 0
Dangerous builds = 0

Please see the log.cite file for references relevant to this simulation

