
# For a single processor calculation
variable T equal 300 # Simulation temperature
variable salt equal 100.0 # Salt concentration [mM]

# Random number seed for Langevin integrator
variable random equal 12345

# Specify the different interaction styles
bond_style      class2
angle_style     hybrid harmonic stacking/3spn2
dihedral_style  3spn2
# pair_stype 3spn2 [dna type] [temperature] [salt concentration (mM)] [short range cutoff] [Coulombic cutoff]
pair_style      hybrid/overlay 3spn2 bdna ${T} ${salt} 18.0 50.0
pair_style      hybrid/overlay 3spn2 bdna 300 ${salt} 18.0 50.0
pair_style      hybrid/overlay 3spn2 bdna 300 100 18.0 50.0

# Periodic boundary conditions
boundary p p p

# Turn on Newton's 2nd law
newton on  #yes

# Read in the configuration
read_data bdna_conf.in
  2 = max bonds/atom
  3 = max angles/atom
  1 = max dihedrals/atom
  orthogonal box = (-124.384 -124.384 -124.384) to (124.384 124.384 124.384)
  1 by 1 by 1 MPI processor grid
  190 atoms
  188 bonds
  308 angles
  120 dihedrals
  3 = max # of 1-2 neighbors
  4 = max # of 1-3 neighbors
  6 = max # of 1-4 neighbors
  9 = max # of special neighbors

# Specify the pair coefficients
pair_coeff  1   1   3spn2   0.239006    4.500000
pair_coeff  2   2   3spn2   0.239006    6.200000
pair_coeff  3   3   3spn2   0.239006    5.400000
pair_coeff  4   4   3spn2   0.239006    7.100000
pair_coeff  5   5   3spn2   0.239006    4.900000
pair_coeff  6   6   3spn2   0.239006    6.400000
pair_coeff  7   7   3spn2   0.239006    5.400000
pair_coeff  8   8   3spn2   0.239006    7.100000
pair_coeff  9   9   3spn2   0.239006    4.900000
pair_coeff  10  10  3spn2   0.239006    6.400000
pair_coeff  11  11  3spn2   0.239006    5.400000
pair_coeff  12  12  3spn2   0.239006    7.100000
pair_coeff  13  13  3spn2   0.239006    4.900000
pair_coeff  14  14  3spn2   0.239006    6.400000
pair_modify mix arithmetic
pair_coeff 1*17 15*17 none # Zeroing out other interactions

# Specify parameters for the neighbor list
neighbor	4.0 multi
neigh_modify    check yes

# A timestep of 0.02 ps
timestep 20.0

# Initialize velocities from a Gaussian distribution
velocity all create ${T} ${random} rot yes mom yes dist gaussian
velocity all create 300 ${random} rot yes mom yes dist gaussian
velocity all create 300 12345 rot yes mom yes dist gaussian

# Calculating the different components of the non-bonded energy
compute edna all pair 3spn2
variable ebp equal c_edna[1] # Base pairing energy
variable ecstk equal c_edna[2] # Cross stacking energy
variable eexcl equal c_edna[3] # Excluded volume energy
variable dna_ecoul equal c_edna[4] # DNA coulombic energy
variable nbp equal c_edna[5] # Number of base pairs

# Specifying the frequency of thermodynamic output
thermo 1
thermo_style custom step v_nbp ebond eangle edihed v_ebp v_ecstk v_eexcl v_dna_ecoul temp

# Specifying a Langevin integrator to perform a simulation in the NVT ensemble
fix 1 all langevin ${T} ${T} 500 ${random} gjf yes
fix 1 all langevin 300 ${T} 500 ${random} gjf yes
fix 1 all langevin 300 300 500 ${random} gjf yes
fix 1 all langevin 300 300 500 12345 gjf yes
fix 2 all nve

# Write configuration to file
#dump 1 all xyz 2000 traj.xyz

# Run X number of steps
#run 50000
rerun traj.xyz dump x y z box no format xyz
Memory usage per processor = 0.961082 Mbytes
Step nbp E_bond E_angle E_dihed ebp ecstk eexcl dna_ecou Temp 
       0           32 0.0020115757    -196.1639   -172.08407   -145.07625   -38.325896            0    11.198986          300 
       1           28    21.744008   -178.87642   -155.40564   -131.68613    -30.14943    0.2054734    11.146359          300 
       2           28    23.161927   -174.69508   -155.54959   -133.25732   -29.992698   0.24500465     10.81114          300 
       3           25    23.282219   -171.04864   -154.83867   -125.03941   -27.333851  0.021034685    10.914364          300 
       4           26    28.869617   -165.87118   -154.88819   -125.44747   -26.988191   0.41718863    11.200167          300 
       5           27    21.810415   -174.29652   -151.55003   -129.31522   -28.432945  0.036354126    10.648215          300 
       6           25     24.75591   -174.61885   -156.11622   -121.54977   -30.332417     0.246228    10.806817          300 
       7           25    33.185578   -172.32013   -154.22793   -124.05936    -29.27902   0.14639561     10.92965          300 
       8           24    19.622888   -175.98236   -156.51006   -127.26374   -25.970052   0.10124264    10.900968          300 
       9           28    30.551474   -174.93107   -155.35974    -126.2341    -29.49882   0.97767018    11.438721          300 
      10           28    31.183963   -175.70773   -156.17356   -128.74089    -30.53093  0.086759542    11.203123          300 
      11           27    30.205037   -180.24077   -159.02058   -127.66042   -29.111971   0.75111146    11.328079          300 
      12           27    25.825795   -179.02795   -156.39085   -127.55783   -28.822091   0.42116234    11.185187          300 
      13           26    24.093232   -175.86474   -158.83081   -129.36315   -30.373646   0.15104586    10.936408          300 
      14           27     28.47726   -176.41055    -157.9687   -129.44138    -30.07148   0.52440051    11.217317          300 
      15           25    23.073885   -175.03418   -152.08753   -123.68401   -26.578347  0.053865022    10.911354          300 
      16           26    26.366012   -169.00811   -153.36848   -130.03408   -28.127392   0.25149853    10.633487          300 
      17           28    23.732183   -179.69511   -159.57149   -127.75239   -28.758583   0.46419682    10.887033          300 
      18           26     26.53504   -176.86205   -158.98025   -125.96931   -28.951801   0.26845312    10.983397          300 
      19           28    31.184199   -177.85116   -154.28492   -131.12483   -27.406555   0.81028266    11.382295          300 
      20           26    27.303467    -173.7474   -155.66576   -127.77302   -30.320604   0.29053754    11.749232          300 
      21           26     26.10162   -178.76337   -157.97977   -125.86641   -30.237072   0.54514256    11.386188          300 
      22           31    27.049569   -176.13055   -159.12245   -131.74663   -29.795903  0.052251687    11.158469          300 
      23           28    24.261622    -177.3283   -156.42926      -132.69   -30.818806   0.23865792    11.396557          300 
      24           31    25.730392   -169.71475   -155.46346   -135.04315   -28.335129   0.61631141    11.009032          300 
      25           29    22.998926   -167.09815   -155.68617   -128.53861   -29.731495   0.72578738    11.371262          300 
Loop time of 0.0201662 on 1 procs for 26 steps with 190 atoms

Pair  time (%) = 0 (0)
Bond  time (%) = 0 (0)
Neigh time (%) = 0 (0)
Comm  time (%) = 0 (0)
Outpt time (%) = 0 (0)
Other time (%) = 0.0201662 (100)

Nlocal:    190 ave 190 max 190 min
Histogram: 1 0 0 0 0 0 0 0 0 0
Nghost:    0 ave 0 max 0 min
Histogram: 1 0 0 0 0 0 0 0 0 0
Neighs:    12845 ave 12845 max 12845 min
Histogram: 1 0 0 0 0 0 0 0 0 0

Total # of neighbors = 12845
Ave neighs/atom = 67.6053
Ave special neighs/atom = 7.13684
Neighbor list builds = 0
Dangerous builds = 0

Please see the log.cite file for references relevant to this simulation

